cost: 842.56
Route 1:           0    7    4   34    8   47   45   27   16    0
Route 2:           0   29   12   20   17   14    1   15    0
Route 3:           0   35    3   50   33    0
Route 4:           0   36   31    5   28   25    0
Route 5:           0   43    9   40   26   24    6    0
Route 6:           0   44   41   38   42   19    0
Route 7:           0   46   32   39   13    2    0
Route 8:           0   48   30   18   11    0
Route 9:           0   49   21   37   23   22   10    0
